(declare-const X String)
; User-Agent\x3A[^\n\r]*aadserver\dYOUR\x2Fxml\x2Ftoolbar\x2F
(assert (not (str.in_re X (re.++ (str.to_re "User-Agent:") (re.* (re.union (str.to_re "\u{a}") (str.to_re "\u{d}"))) (str.to_re "aadserver") (re.range "0" "9") (str.to_re "YOUR/xml/toolbar/\u{a}")))))
; ([a-zA-Z0-9\_\-\.]+[a-zA-Z0-9\_\-\.]+[a-zA-Z0-9\_\-\.]+)+@([a-zA-z0-9][a-zA-z0-9][a-zA-z0-9]*)+(\.[a-zA-z0-9][a-zA-z0-9][a-zA-z0-9]*)(\.[a-zA-z0-9]+)*
(assert (not (str.in_re X (re.++ (re.+ (re.++ (re.+ (re.union (re.range "a" "z") (re.range "A" "Z") (re.range "0" "9") (str.to_re "_") (str.to_re "-") (str.to_re "."))) (re.+ (re.union (re.range "a" "z") (re.range "A" "Z") (re.range "0" "9") (str.to_re "_") (str.to_re "-") (str.to_re "."))) (re.+ (re.union (re.range "a" "z") (re.range "A" "Z") (re.range "0" "9") (str.to_re "_") (str.to_re "-") (str.to_re "."))))) (str.to_re "@") (re.+ (re.++ (re.union (re.range "a" "z") (re.range "A" "z") (re.range "0" "9")) (re.union (re.range "a" "z") (re.range "A" "z") (re.range "0" "9")) (re.* (re.union (re.range "a" "z") (re.range "A" "z") (re.range "0" "9"))))) (re.* (re.++ (str.to_re ".") (re.+ (re.union (re.range "a" "z") (re.range "A" "z") (re.range "0" "9"))))) (str.to_re "\u{a}.") (re.union (re.range "a" "z") (re.range "A" "z") (re.range "0" "9")) (re.union (re.range "a" "z") (re.range "A" "z") (re.range "0" "9")) (re.* (re.union (re.range "a" "z") (re.range "A" "z") (re.range "0" "9")))))))
; User-Agent\x3A\w+Minutes\sHost\x3Awww\x2Eeblocs\x2EcomHost\x3ARunnerHost\x3a\x2Ehtml
(assert (not (str.in_re X (re.++ (str.to_re "User-Agent:") (re.+ (re.union (re.range "0" "9") (re.range "A" "Z") (re.range "a" "z") (str.to_re "_"))) (str.to_re "Minutes") (re.union (str.to_re " ") (str.to_re "\u{9}") (str.to_re "\u{a}") (str.to_re "\u{c}") (str.to_re "\u{d}")) (str.to_re "Host:www.eblocs.com\u{1b}Host:RunnerHost:.html\u{a}")))))
; /filename=[^\n]*\x2ecy3/i
(assert (str.in_re X (re.++ (str.to_re "/filename=") (re.* (re.comp (str.to_re "\u{a}"))) (str.to_re ".cy3/i\u{a}"))))
(check-sat)

(exit)
